\* FlowModel *\
Minimize
OBJ: 10 i_0 + 10 i_1 + 10 i_10 + 10 i_11 + 10 i_12 + 10 i_13 + 10 i_14
 + 10 i_15 + 10 i_16 + 10 i_17 + 10 i_18 + 10 i_19 + 10 i_2 + 10 i_20
 + 10 i_21 + 10 i_22 + 10 i_23 + 10 i_24 + 10 i_25 + 10 i_26 + 10 i_27
 + 10 i_28 + 10 i_29 + 10 i_3 + 10 i_30 + 10 i_31 + 10 i_32 + 10 i_33
 + 10 i_34 + 10 i_35 + 10 i_4 + 10 i_5 + 10 i_6 + 10 i_7 + 10 i_8 + 10 i_9
 + 50 p_0 + 50 p_1 + 50 p_10 + 50 p_11 + 50 p_12 + 50 p_13 + 50 p_14 + 50 p_15
 + 50 p_16 + 50 p_17 + 50 p_18 + 50 p_19 + 50 p_2 + 50 p_20 + 50 p_21
 + 50 p_22 + 50 p_23 + 50 p_24 + 50 p_25 + 50 p_26 + 50 p_27 + 50 p_28
 + 50 p_29 + 50 p_3 + 50 p_30 + 50 p_31 + 50 p_32 + 50 p_33 + 50 p_34
 + 50 p_35 + 50 p_4 + 50 p_5 + 50 p_6 + 50 p_7 + 50 p_8 + 50 p_9
Subject To
_C1: i_0 - p_0 = -3134
_C10: - i_8 + i_9 - p_9 = -3451
_C11: i_10 - i_9 - p_10 = -3201
_C12: - i_10 + i_11 - p_11 = -3099
_C13: - i_11 + i_12 - p_12 = -3254
_C14: - i_12 + i_13 - p_13 = -3417
_C15: - i_13 + i_14 - p_14 = -3588
_C16: - i_14 + i_15 - p_15 = -3767
_C17: - i_15 + i_16 - p_16 = -3955
_C18: - i_16 + i_17 - p_17 = -4153
_C19: - i_17 + i_18 - p_18 = -4361
_C2: - i_0 + i_1 - p_1 = -3291
_C20: - i_18 + i_19 - p_19 = -4579
_C21: - i_19 + i_20 - p_20 = -4808
_C22: - i_20 + i_21 - p_21 = -4438
_C23: - i_21 + i_22 - p_22 = -4132
_C24: - i_22 + i_23 - p_23 = -3900
_C25: - i_23 + i_24 - p_24 = -4095
_C26: - i_24 + i_25 - p_25 = -4300
_C27: - i_25 + i_26 - p_26 = -4515
_C28: - i_26 + i_27 - p_27 = -4741
_C29: - i_27 + i_28 - p_28 = -4978
_C3: - i_1 + i_2 - p_2 = -3456
_C30: - i_28 + i_29 - p_29 = -5227
_C31: - i_29 + i_30 - p_30 = -5488
_C32: - i_30 + i_31 - p_31 = -4913
_C33: - i_31 + i_32 - p_32 = -4754
_C34: - i_32 + i_33 - p_33 = -4503
_C35: - i_33 + i_34 - p_34 = -4201
_C36: - i_34 + i_35 - p_35 = -3990
_C4: - i_2 + i_3 - p_3 = -3629
_C5: - i_3 + i_4 - p_4 = -3810
_C6: - i_4 + i_5 - p_5 = -4001
_C7: - i_5 + i_6 - p_6 = -4201
_C8: - i_6 + i_7 - p_7 = -4411
_C9: - i_7 + i_8 - p_8 = -3943
Bounds
 p_0 <= 4500
 p_1 <= 4500
 p_10 <= 4500
 p_11 <= 4500
 p_12 <= 4500
 p_13 <= 4500
 p_14 <= 4500
 p_15 <= 4500
 p_16 <= 4500
 p_17 <= 4500
 p_18 <= 4500
 p_19 <= 4500
 p_2 <= 4500
 p_20 <= 4500
 p_21 <= 4500
 p_22 <= 4500
 p_23 <= 4500
 p_24 <= 4500
 p_25 <= 4500
 p_26 <= 4500
 p_27 <= 4500
 p_28 <= 4500
 p_29 <= 4500
 p_3 <= 4500
 p_30 <= 4500
 p_31 <= 4500
 p_32 <= 4500
 p_33 <= 4500
 p_34 <= 4500
 p_35 <= 4500
 p_4 <= 4500
 p_5 <= 4500
 p_6 <= 4500
 p_7 <= 4500
 p_8 <= 4500
 p_9 <= 4500
End
